12
1 2 3
1 3 20
1 4 5
1 5 7
1 6 10
1 7 4
1 8 5
1 9 11
1 10 13
1 11 12
1 12 5
2 3 15
2 4 10
2 5 3
2 6 19
2 7 2
2 8 15
2 9 4
2 10 10
2 11 4
2 12 8
3 4 4
3 5 7
3 6 12
3 7 1
3 8 10
3 9 5
3 10 11
3 11 34
3 12 5
4 5 1
4 6 12
4 7 8
4 8 11
4 9 7
4 10 1
4 11 17
4 12 3
5 6 1
5 7 3
5 8 12
5 9 20
5 10 12
5 11 12
5 12 3
6 7 3
6 8 11
6 9 17
6 10 3
6 11 9
6 12 10
7 8 14
7 9 20
7 10 2
7 11 3
7 12 4
8 9 15
8 10 6
8 11 22
8 12 3
9 10 8
9 11 13
9 12 4
10 11 4
10 12 7
11 12 5